VER
4

OBJSENSE
MIN


QKDCONES
1 50
25 1 25 25 0
0 0 0 1.0
0 1 1 1.0
0 2 2 1.0
0 3 3 1.0
0 4 4 1.0
0 5 5 1.0
0 6 6 1.0
0 7 7 1.0
0 8 8 1.0
0 9 9 1.0
0 10 10 1.0
0 11 11 1.0
0 12 12 1.0
0 13 13 1.0
0 14 14 1.0
0 15 15 1.0
0 16 16 1.0
0 17 17 1.0
0 18 18 1.0
0 19 19 1.0
0 20 20 1.0
0 21 21 1.0
0 22 22 1.0
0 23 23 1.0
0 24 24 1.0
25 5 25 25 0
0 0 0 1.0
0 1 1 1.0
0 2 2 1.0
0 3 3 1.0
0 4 4 1.0
1 5 5 1.0
1 6 6 1.0
1 7 7 1.0
1 8 8 1.0
1 9 9 1.0
2 10 10 1.0
2 11 11 1.0
2 12 12 1.0
2 13 13 1.0
2 14 14 1.0
3 15 15 1.0
3 16 16 1.0
3 17 17 1.0
3 18 18 1.0
3 19 19 1.0
4 20 20 1.0
4 21 21 1.0
4 22 22 1.0
4 23 23 1.0
4 24 24 1.0

VAR
326 1
@0:SVECQKD 326

CON
57 1
L= 57

OBJACOORD
1
0 1.0

ACOORD
313
0 1 1.0
1 3 1.0
2 6 1.0
3 10 1.0
4 15 1.0
5 21 1.0
6 28 1.0
7 36 1.0
8 45 1.0
9 55 1.0
10 66 1.0
11 78 1.0
12 91 1.0
13 105 1.0
14 120 1.0
15 136 1.0
16 153 1.0
17 171 1.0
18 190 1.0
19 210 1.0
20 231 1.0
21 253 1.0
22 276 1.0
23 300 1.0
24 1 0.25
24 2 0.3535533905932738
24 3 0.25
24 16 0.3535533905932738
24 17 0.3535533905932738
24 21 0.25
24 22 0.3535533905932738
24 23 0.3535533905932738
24 27 0.3535533905932738
24 28 0.25
25 1 0.25
25 2 -0.3535533905932738
25 3 0.25
25 16 0.3535533905932738
25 17 -0.3535533905932738
25 21 0.25
25 22 -0.3535533905932738
25 23 0.3535533905932738
25 27 -0.3535533905932738
25 28 0.25
26 6 0.25
26 9 0.3535533905932738
26 10 0.25
26 31 0.3535533905932738
26 32 0.3535533905932738
26 36 0.25
26 39 0.3535533905932738
26 40 0.3535533905932738
26 44 0.3535533905932738
26 45 0.25
27 6 0.25
27 9 -0.3535533905932738
27 10 0.25
27 31 0.3535533905932738
27 32 -0.3535533905932738
27 36 0.25
27 39 -0.3535533905932738
27 40 0.3535533905932738
27 44 -0.3535533905932738
27 45 0.25
28 15 0.5
28 50 0.7071067811865476
28 55 0.5
29 1 0.25
29 2 0.3535533905932738
29 3 0.25
29 16 -0.3535533905932738
29 17 -0.3535533905932738
29 21 0.25
29 22 -0.3535533905932738
29 23 -0.3535533905932738
29 27 0.3535533905932738
29 28 0.25
30 6 0.25
30 9 0.3535533905932738
30 10 0.25
30 31 -0.3535533905932738
30 32 -0.3535533905932738
30 36 0.25
30 39 -0.3535533905932738
30 40 -0.3535533905932738
30 44 0.3535533905932738
30 45 0.25
31 66 0.25
31 77 0.3535533905932738
31 78 0.25
31 131 0.3535533905932738
31 132 0.3535533905932738
31 136 0.25
31 147 0.3535533905932738
31 148 0.3535533905932738
31 152 0.3535533905932738
31 153 0.25
32 66 0.25
32 77 -0.3535533905932738
32 78 0.25
32 131 0.3535533905932738
32 132 -0.3535533905932738
32 136 0.25
32 147 -0.3535533905932738
32 148 0.3535533905932738
32 152 -0.3535533905932738
32 153 0.25
33 91 0.25
33 104 0.3535533905932738
33 105 0.25
33 166 0.3535533905932738
33 167 0.3535533905932738
33 171 0.25
33 184 0.3535533905932738
33 185 0.3535533905932738
33 189 0.3535533905932738
33 190 0.25
34 91 0.25
34 104 -0.3535533905932738
34 105 0.25
34 166 0.3535533905932738
34 167 -0.3535533905932738
34 171 0.25
34 184 -0.3535533905932738
34 185 0.3535533905932738
34 189 -0.3535533905932738
34 190 0.25
35 120 0.5
35 205 0.7071067811865476
35 210 0.5
36 66 0.25
36 77 0.3535533905932738
36 78 0.25
36 131 -0.3535533905932738
36 132 -0.3535533905932738
36 136 0.25
36 147 -0.3535533905932738
36 148 -0.3535533905932738
36 152 0.3535533905932738
36 153 0.25
37 91 0.25
37 104 0.3535533905932738
37 105 0.25
37 166 -0.3535533905932738
37 167 -0.3535533905932738
37 171 0.25
37 184 -0.3535533905932738
37 185 -0.3535533905932738
37 189 0.3535533905932738
37 190 0.25
38 231 0.5
38 252 0.7071067811865476
38 253 0.5
39 276 0.5
39 299 0.7071067811865476
39 300 0.5
40 3 0.5
40 5 0.7071067811865476
40 6 0.5
41 10 0.5
41 14 0.7071067811865476
41 15 0.5
42 21 0.5
42 61 0.7071067811865476
42 66 0.5
43 28 0.25
43 35 0.3535533905932738
43 36 0.25
43 73 0.3535533905932738
43 74 0.3535533905932738
43 78 0.25
43 85 0.3535533905932738
43 86 0.3535533905932738
43 90 0.3535533905932738
43 91 0.25
44 28 0.25
44 35 -0.3535533905932738
44 36 0.25
44 73 0.3535533905932738
44 74 -0.3535533905932738
44 78 0.25
44 85 -0.3535533905932738
44 86 0.3535533905932738
44 90 -0.3535533905932738
44 91 0.25
45 45 0.25
45 54 0.3535533905932738
45 55 0.25
45 100 0.3535533905932738
45 101 0.3535533905932738
45 105 0.25
45 114 0.3535533905932738
45 115 0.3535533905932738
45 119 0.3535533905932738
45 120 0.25
46 45 0.25
46 54 -0.3535533905932738
46 55 0.25
46 100 0.3535533905932738
46 101 -0.3535533905932738
46 105 0.25
46 114 -0.3535533905932738
46 115 0.3535533905932738
46 119 -0.3535533905932738
46 120 0.25
47 28 0.25
47 35 0.3535533905932738
47 36 0.25
47 73 -0.3535533905932738
47 74 -0.3535533905932738
47 78 0.25
47 85 -0.3535533905932738
47 86 -0.3535533905932738
47 90 0.3535533905932738
47 91 0.25
48 45 0.25
48 54 0.3535533905932738
48 55 0.25
48 100 -0.3535533905932738
48 101 -0.3535533905932738
48 105 0.25
48 114 -0.3535533905932738
48 115 -0.3535533905932738
48 119 0.3535533905932738
48 120 0.25
49 136 0.5
49 226 0.7071067811865476
49 231 0.5
50 153 0.25
50 170 0.3535533905932738
50 171 0.25
50 248 0.3535533905932738
50 249 0.3535533905932738
50 253 0.25
50 270 0.3535533905932738
50 271 0.3535533905932738
50 275 0.3535533905932738
50 276 0.25
51 153 0.25
51 170 -0.3535533905932738
51 171 0.25
51 248 0.3535533905932738
51 249 -0.3535533905932738
51 253 0.25
51 270 -0.3535533905932738
51 271 0.3535533905932738
51 275 -0.3535533905932738
51 276 0.25
52 190 0.25
52 209 0.3535533905932738
52 210 0.25
52 295 0.3535533905932738
52 296 0.3535533905932738
52 300 0.25
52 319 0.3535533905932738
52 320 0.3535533905932738
52 324 0.3535533905932738
52 325 0.25
53 190 0.25
53 209 -0.3535533905932738
53 210 0.25
53 295 0.3535533905932738
53 296 -0.3535533905932738
53 300 0.25
53 319 -0.3535533905932738
53 320 0.3535533905932738
53 324 -0.3535533905932738
53 325 0.25
54 153 0.25
54 170 0.3535533905932738
54 171 0.25
54 248 -0.3535533905932738
54 249 -0.3535533905932738
54 253 0.25
54 270 -0.3535533905932738
54 271 -0.3535533905932738
54 275 0.3535533905932738
54 276 0.25
55 190 0.25
55 209 0.3535533905932738
55 210 0.25
55 295 -0.3535533905932738
55 296 -0.3535533905932738
55 300 0.25
55 319 -0.3535533905932738
55 320 -0.3535533905932738
55 324 0.3535533905932738
55 325 0.25
56 1 1.0
56 3 1.0
56 6 1.0
56 10 1.0
56 15 1.0
56 21 1.0
56 28 1.0
56 36 1.0
56 45 1.0
56 55 1.0
56 66 1.0
56 78 1.0
56 91 1.0
56 105 1.0
56 120 1.0
56 136 1.0
56 153 1.0
56 171 1.0
56 190 1.0
56 210 1.0
56 231 1.0
56 253 1.0
56 276 1.0
56 300 1.0
56 325 1.0

BCOORD
57
0 0.192
1 0.0020000000000000018
2 0.0020000000000000018
3 0.0020000000000000018
4 0.0020000000000000018
5 0.0020000000000000018
6 0.192
7 0.0020000000000000018
8 0.0020000000000000018
9 0.0020000000000000018
10 0.0020000000000000018
11 0.0020000000000000018
12 0.192
13 0.0020000000000000018
14 0.0020000000000000018
15 0.0020000000000000018
16 0.0020000000000000018
17 0.0020000000000000018
18 0.192
19 0.0020000000000000018
20 0.0020000000000000018
21 0.0020000000000000018
22 0.0020000000000000018
23 0.0020000000000000018
24 0.192
25 0.0020000000000000018
26 0.0020000000000000018
27 0.0020000000000000018
28 0.0020000000000000018
29 0.0020000000000000018
30 0.0020000000000000018
31 0.0020000000000000018
32 0.0020000000000000018
33 0.192
34 0.0020000000000000018
35 0.0020000000000000018
36 0.0020000000000000018
37 0.0020000000000000018
38 0.0020000000000000018
39 0.0020000000000000018
40 0.0020000000000000018
41 0.0020000000000000018
42 0.0020000000000000018
43 0.192
44 0.0020000000000000018
45 0.0020000000000000018
46 0.0020000000000000018
47 0.0020000000000000018
48 0.0020000000000000018
49 0.0020000000000000018
50 0.0020000000000000018
51 0.0020000000000000018
52 0.192
53 0.0020000000000000018
54 0.0020000000000000018
55 0.0020000000000000018
56 1.0
